Nb of jobs, Nb of Machines, Time seed, Machine seed, Upper bound, Lower bound
5,10,-1,-1,-1,-1
Times
8,69,83,7,90,95,50,43,22,4
84,64,78,86,60,28,47,6,9,1
29,50,67,6,78,54,62,19,10,88
80,17,61,91,25,23,80,62,98,71
97,41,12,73,53,54,1,32,69,62
Machines
3,10,7,1,8,9,2,6,4,5
8,1,2,9,10,7,4,5,6,3
9,2,5,6,3,4,1,10,7,8
8,6,3,9,5,1,10,2,7,4
10,5,3,2,7,1,8,9,6,4
